80
1566
7
69
29
81
85
33
73
87
0 3
0 5
0 6
0 7
0 8
0 9
0 10
0 13
0 14
0 16
0 18
0 23
0 24
0 26
0 27
0 32
0 33
0 34
0 35
0 36
0 38
0 40
0 41
0 43
0 47
0 48
0 51
0 52
0 53
0 56
0 62
0 63
0 66
0 67
0 68
0 69
0 70
0 72
0 73
0 77
0 78
0 79
1 2
1 4
1 6
1 8
1 11
1 14
1 15
1 16
1 18
1 20
1 21
1 22
1 28
1 29
1 32
1 37
1 41
1 42
1 43
1 45
1 46
1 49
1 50
1 52
1 53
1 55
1 56
1 64
1 65
1 66
1 69
1 70
1 76
1 79
2 3
2 4
2 5
2 7
2 8
2 12
2 13
2 14
2 17
2 18
2 19
2 20
2 22
2 24
2 26
2 27
2 28
2 34
2 39
2 40
2 41
2 42
2 43
2 45
2 48
2 49
2 50
2 51
2 53
2 54
2 56
2 61
2 62
2 63
2 66
2 67
2 68
2 70
2 75
2 79
3 5
3 6
3 8
3 9
3 10
3 11
3 12
3 13
3 14
3 16
3 18
3 19
3 20
3 25
3 27
3 29
3 30
3 31
3 32
3 36
3 37
3 42
3 43
3 45
3 46
3 47
3 48
3 50
3 51
3 52
3 53
3 55
3 58
3 62
3 64
3 66
3 68
3 70
3 74
3 77
4 5
4 6
4 8
4 11
4 13
4 14
4 17
4 22
4 23
4 26
4 27
4 29
4 30
4 31
4 34
4 35
4 36
4 37
4 38
4 39
4 42
4 43
4 45
4 46
4 47
4 48
4 54
4 58
4 61
4 62
4 64
4 68
4 69
4 71
4 72
4 75
4 76
4 78
5 6
5 9
5 10
5 11
5 13
5 14
5 15
5 18
5 19
5 21
5 30
5 31
5 35
5 36
5 37
5 38
5 39
5 45
5 46
5 47
5 48
5 49
5 51
5 53
5 54
5 55
5 56
5 58
5 59
5 60
5 62
5 64
5 69
5 71
5 73
5 74
5 76
5 78
5 79
6 7
6 8
6 10
6 11
6 12
6 14
6 20
6 21
6 22
6 24
6 26
6 28
6 30
6 34
6 38
6 39
6 40
6 43
6 50
6 52
6 58
6 59
6 60
6 62
6 63
6 64
6 66
6 67
6 69
6 74
6 75
6 76
6 77
6 79
7 8
7 10
7 12
7 14
7 15
7 18
7 19
7 20
7 27
7 32
7 34
7 35
7 37
7 39
7 42
7 45
7 49
7 52
7 53
7 54
7 57
7 59
7 60
7 61
7 65
7 66
7 67
7 68
7 70
7 71
7 74
7 75
7 76
7 77
7 79
8 9
8 15
8 16
8 19
8 20
8 21
8 22
8 25
8 26
8 30
8 32
8 33
8 36
8 39
8 43
8 44
8 48
8 49
8 50
8 51
8 53
8 58
8 60
8 64
8 65
8 67
8 69
8 70
8 73
8 75
8 78
8 79
9 10
9 14
9 15
9 17
9 18
9 20
9 21
9 22
9 23
9 26
9 27
9 33
9 36
9 37
9 41
9 46
9 47
9 48
9 49
9 52
9 55
9 58
9 59
9 60
9 61
9 62
9 63
9 64
9 65
9 68
9 69
9 70
9 71
9 72
9 73
9 75
9 77
9 78
9 79
10 11
10 13
10 15
10 16
10 18
10 19
10 20
10 21
10 24
10 27
10 28
10 29
10 30
10 33
10 35
10 39
10 41
10 48
10 49
10 51
10 52
10 53
10 55
10 61
10 65
10 66
10 67
10 68
10 71
10 73
10 76
10 79
11 14
11 15
11 17
11 19
11 22
11 23
11 25
11 26
11 27
11 28
11 29
11 30
11 32
11 34
11 35
11 37
11 39
11 41
11 42
11 45
11 47
11 49
11 50
11 52
11 53
11 56
11 57
11 58
11 60
11 63
11 65
11 70
11 72
11 74
11 76
11 77
11 79
12 13
12 15
12 16
12 17
12 21
12 23
12 24
12 26
12 28
12 30
12 35
12 37
12 38
12 39
12 41
12 43
12 44
12 45
12 47
12 50
12 52
12 53
12 55
12 57
12 59
12 60
12 61
12 63
12 64
12 65
12 69
12 70
12 71
12 72
12 74
12 77
13 14
13 15
13 16
13 17
13 18
13 19
13 21
13 23
13 24
13 25
13 26
13 29
13 30
13 33
13 34
13 35
13 36
13 38
13 39
13 40
13 41
13 42
13 43
13 49
13 52
13 53
13 56
13 59
13 60
13 61
13 62
13 63
13 65
13 68
13 69
13 70
13 71
13 72
13 73
13 76
14 21
14 23
14 26
14 27
14 28
14 29
14 31
14 32
14 33
14 34
14 36
14 37
14 39
14 41
14 42
14 43
14 44
14 47
14 48
14 49
14 50
14 52
14 53
14 54
14 58
14 61
14 62
14 63
14 66
14 72
14 73
14 74
14 76
14 77
15 16
15 17
15 18
15 19
15 20
15 22
15 23
15 25
15 26
15 30
15 32
15 33
15 34
15 35
15 37
15 39
15 47
15 48
15 49
15 51
15 54
15 55
15 56
15 58
15 59
15 62
15 73
15 75
15 78
15 79
16 17
16 19
16 23
16 24
16 25
16 27
16 32
16 33
16 34
16 38
16 39
16 40
16 41
16 43
16 45
16 46
16 48
16 50
16 51
16 54
16 55
16 56
16 57
16 58
16 59
16 63
16 68
16 69
16 72
16 76
16 78
17 19
17 20
17 22
17 28
17 32
17 33
17 38
17 42
17 44
17 45
17 47
17 48
17 49
17 52
17 53
17 54
17 57
17 58
17 59
17 60
17 62
17 63
17 64
17 69
17 71
17 72
17 74
18 19
18 21
18 24
18 25
18 28
18 32
18 35
18 36
18 40
18 41
18 42
18 43
18 46
18 54
18 56
18 57
18 58
18 60
18 61
18 70
18 71
18 74
18 77
18 78
18 79
19 20
19 22
19 26
19 29
19 30
19 32
19 33
19 37
19 38
19 39
19 40
19 46
19 52
19 53
19 55
19 56
19 57
19 66
19 67
19 69
19 70
19 71
19 72
19 74
19 75
19 76
19 77
19 79
20 24
20 26
20 30
20 31
20 33
20 38
20 40
20 41
20 42
20 43
20 44
20 45
20 47
20 48
20 52
20 53
20 58
20 62
20 66
20 69
20 71
20 74
20 75
20 76
21 24
21 25
21 26
21 28
21 30
21 31
21 32
21 33
21 35
21 36
21 38
21 39
21 44
21 46
21 48
21 49
21 54
21 55
21 57
21 58
21 59
21 60
21 66
21 68
21 69
21 71
21 74
21 75
21 77
21 78
22 24
22 25
22 26
22 29
22 32
22 33
22 35
22 37
22 38
22 39
22 42
22 43
22 44
22 46
22 47
22 48
22 49
22 52
22 53
22 55
22 56
22 62
22 63
22 65
22 67
22 68
22 69
22 71
22 73
22 74
23 26
23 27
23 31
23 34
23 37
23 38
23 41
23 45
23 46
23 47
23 49
23 50
23 51
23 53
23 55
23 57
23 61
23 63
23 66
23 68
23 70
23 72
23 74
23 75
23 77
24 25
24 27
24 28
24 31
24 33
24 35
24 43
24 44
24 46
24 48
24 50
24 52
24 54
24 55
24 58
24 59
24 60
24 65
24 67
24 68
24 69
24 70
24 71
24 72
24 73
24 74
24 75
25 28
25 31
25 36
25 37
25 39
25 40
25 42
25 43
25 45
25 47
25 49
25 52
25 54
25 58
25 63
25 64
25 65
25 69
25 70
25 71
25 72
25 73
25 74
25 77
26 27
26 29
26 30
26 32
26 33
26 35
26 37
26 38
26 39
26 41
26 46
26 50
26 51
26 52
26 54
26 59
26 61
26 63
26 66
26 67
26 68
26 70
26 73
26 74
26 76
26 77
26 78
26 79
27 28
27 29
27 31
27 32
27 34
27 35
27 41
27 43
27 44
27 49
27 50
27 53
27 54
27 56
27 58
27 59
27 63
27 64
27 66
27 68
27 70
27 72
27 73
27 74
27 76
27 77
28 29
28 32
28 33
28 34
28 37
28 38
28 39
28 41
28 42
28 44
28 46
28 50
28 56
28 57
28 62
28 65
28 68
28 69
28 70
28 71
28 72
28 75
28 77
28 78
28 79
29 31
29 32
29 33
29 34
29 36
29 37
29 40
29 44
29 47
29 50
29 51
29 53
29 54
29 55
29 56
29 58
29 59
29 60
29 62
29 63
29 69
29 70
29 71
29 74
29 75
29 77
29 78
30 32
30 33
30 34
30 35
30 36
30 37
30 41
30 49
30 52
30 53
30 55
30 56
30 57
30 58
30 59
30 60
30 61
30 62
30 63
30 65
30 66
30 67
30 68
30 69
30 70
30 72
30 75
30 77
30 79
31 33
31 36
31 39
31 40
31 45
31 46
31 50
31 51
31 54
31 55
31 58
31 62
31 63
31 64
31 66
31 67
31 68
31 69
31 71
31 75
31 76
31 78
32 33
32 34
32 35
32 36
32 37
32 38
32 39
32 40
32 44
32 45
32 46
32 47
32 49
32 50
32 52
32 54
32 55
32 56
32 61
32 63
32 64
32 65
32 67
32 69
32 70
32 74
32 76
32 78
32 79
33 35
33 37
33 39
33 40
33 43
33 46
33 51
33 53
33 55
33 58
33 59
33 62
33 66
33 67
33 68
33 71
33 73
33 74
33 78
33 79
34 35
34 37
34 38
34 41
34 45
34 51
34 53
34 54
34 56
34 57
34 58
34 59
34 63
34 64
34 66
34 68
34 69
34 72
34 73
34 74
34 77
34 78
35 36
35 37
35 40
35 41
35 44
35 48
35 54
35 56
35 60
35 62
35 63
35 67
35 68
35 70
35 71
35 72
35 73
35 74
35 75
36 37
36 38
36 40
36 41
36 42
36 44
36 45
36 46
36 47
36 48
36 50
36 51
36 52
36 53
36 60
36 62
36 64
36 66
36 67
36 68
36 73
36 75
36 76
36 78
36 79
37 39
37 43
37 44
37 45
37 47
37 53
37 54
37 55
37 56
37 58
37 60
37 61
37 63
37 65
37 68
37 70
37 71
37 75
37 77
37 78
37 79
38 39
38 44
38 45
38 48
38 49
38 50
38 51
38 53
38 54
38 59
38 60
38 61
38 65
38 66
38 69
38 78
39 43
39 44
39 47
39 49
39 55
39 59
39 63
39 64
39 66
39 67
39 68
39 69
39 70
39 72
39 73
39 74
39 77
39 78
40 45
40 46
40 47
40 49
40 50
40 57
40 60
40 61
40 62
40 64
40 65
40 67
40 69
40 75
40 77
41 44
41 47
41 48
41 49
41 52
41 53
41 56
41 57
41 59
41 67
41 69
41 72
41 73
41 74
41 75
41 78
41 79
42 45
42 48
42 49
42 50
42 52
42 57
42 58
42 59
42 60
42 62
42 63
42 64
42 65
42 68
42 69
42 70
42 74
42 76
42 77
42 78
42 79
43 46
43 49
43 52
43 53
43 56
43 58
43 59
43 61
43 62
43 65
43 67
43 70
43 71
43 73
43 74
43 78
44 45
44 46
44 48
44 52
44 54
44 55
44 57
44 58
44 60
44 62
44 63
44 64
44 65
44 66
44 67
44 69
44 71
44 72
44 73
44 76
44 77
44 78
45 47
45 48
45 51
45 54
45 55
45 57
45 59
45 60
45 61
45 65
45 67
45 69
45 71
45 72
45 73
45 74
45 75
45 77
45 78
46 49
46 52
46 53
46 54
46 55
46 56
46 57
46 58
46 59
46 62
46 63
46 66
46 68
46 70
46 74
46 79
47 54
47 57
47 59
47 62
47 63
47 66
47 67
47 68
47 71
47 73
47 75
47 76
47 79
48 51
48 53
48 54
48 55
48 58
48 60
48 63
48 65
48 66
48 68
48 69
48 71
48 72
48 75
48 78
49 50
49 51
49 53
49 54
49 56
49 57
49 58
49 64
49 65
49 66
49 75
49 76
49 79
50 52
50 54
50 57
50 62
50 63
50 64
50 66
50 68
50 69
50 71
50 73
50 75
50 77
50 78
50 79
51 53
51 54
51 55
51 57
51 60
51 62
51 67
51 68
51 71
51 73
51 75
51 76
51 77
51 79
52 57
52 58
52 60
52 65
52 67
52 71
52 75
52 76
52 77
52 78
52 79
53 55
53 56
53 57
53 59
53 63
53 64
53 65
53 67
53 68
53 69
53 70
53 72
53 73
53 74
53 79
54 57
54 58
54 60
54 61
54 63
54 65
54 66
54 71
54 72
54 74
54 78
54 79
55 56
55 57
55 61
55 64
55 70
55 74
55 76
55 77
56 58
56 63
56 65
56 66
56 68
56 70
56 71
56 73
56 77
56 78
57 58
57 61
57 65
57 66
57 67
57 69
57 70
57 71
57 72
57 73
57 76
57 77
57 78
57 79
58 59
58 60
58 61
58 64
58 67
58 68
58 69
58 70
58 71
58 72
58 76
58 79
59 60
59 61
59 62
59 63
59 66
59 67
59 71
59 72
59 73
59 74
59 78
59 79
60 63
60 64
60 66
60 67
60 68
60 69
60 70
60 71
60 72
60 75
60 76
61 63
61 65
61 66
61 68
61 72
61 73
61 75
61 78
62 66
62 67
62 70
62 71
62 74
62 76
62 78
63 64
63 67
63 75
63 76
63 77
64 68
64 69
64 70
64 71
64 74
64 76
64 77
64 79
65 68
65 70
65 73
65 74
65 78
65 79
66 67
66 68
66 71
66 72
66 77
66 79
67 70
67 71
67 73
67 74
67 79
68 70
68 75
68 76
68 79
69 70
69 71
69 73
69 74
69 75
69 77
69 78
70 72
70 73
70 75
70 76
70 77
70 78
70 79
71 73
71 74
71 75
71 76
71 79
72 73
72 74
72 75
72 76
72 78
72 79
73 74
73 76
73 79
74 75
74 78
74 79
75 76
75 77
76 77
76 78
77 78
15 46 36 74 22 53 58 64 30 5 7 71
59 23 31 6 32 51 8 45 50 9 35 10
39 16 41 37 60 2 38 54 76 21 67 18
17 4 62 65 33 78 29 73 72 12 77 69
14 52 57 24 43 26 48 28 44 25 47 70
1 61 63 66 20 49 56 19 40 11 0 13
42 79 34 27 55 75 3 68
